NAME: cng_test_instance
OBJSENSE
 MAX
ROWS
 N cost
 L DKP
 L AKP
 L lin_xy_1_0
 L lin_xy_1_1
 L lin_xy_1_2
 L lin_xy_1_3
 L lin_xy_1_4
 L lin_xy_1_5
 L lin_xy_1_6
 L lin_xy_1_7
 L lin_xy_1_8
 L lin_xy_1_9
 L lin_xy_1_10
 L lin_xy_1_11
 L lin_xy_1_12
 L lin_xy_1_13
 L lin_xy_1_14
 L lin_xy_1_15
 L lin_xy_1_16
 L lin_xy_1_17
 L lin_xy_1_18
 L lin_xy_1_19
 L lin_xy_1_20
 L lin_xy_1_21
 L lin_xy_1_22
 L lin_xy_1_23
 L lin_xy_1_24
 L lin_xy_2_0
 L lin_xy_2_1
 L lin_xy_2_2
 L lin_xy_2_3
 L lin_xy_2_4
 L lin_xy_2_5
 L lin_xy_2_6
 L lin_xy_2_7
 L lin_xy_2_8
 L lin_xy_2_9
 L lin_xy_2_10
 L lin_xy_2_11
 L lin_xy_2_12
 L lin_xy_2_13
 L lin_xy_2_14
 L lin_xy_2_15
 L lin_xy_2_16
 L lin_xy_2_17
 L lin_xy_2_18
 L lin_xy_2_19
 L lin_xy_2_20
 L lin_xy_2_21
 L lin_xy_2_22
 L lin_xy_2_23
 L lin_xy_2_24
 L lin_xy_3_0
 L lin_xy_3_1
 L lin_xy_3_2
 L lin_xy_3_3
 L lin_xy_3_4
 L lin_xy_3_5
 L lin_xy_3_6
 L lin_xy_3_7
 L lin_xy_3_8
 L lin_xy_3_9
 L lin_xy_3_10
 L lin_xy_3_11
 L lin_xy_3_12
 L lin_xy_3_13
 L lin_xy_3_14
 L lin_xy_3_15
 L lin_xy_3_16
 L lin_xy_3_17
 L lin_xy_3_18
 L lin_xy_3_19
 L lin_xy_3_20
 L lin_xy_3_21
 L lin_xy_3_22
 L lin_xy_3_23
 L lin_xy_3_24
 L lin_xny_1_0
 L lin_xny_1_1
 L lin_xny_1_2
 L lin_xny_1_3
 L lin_xny_1_4
 L lin_xny_1_5
 L lin_xny_1_6
 L lin_xny_1_7
 L lin_xny_1_8
 L lin_xny_1_9
 L lin_xny_1_10
 L lin_xny_1_11
 L lin_xny_1_12
 L lin_xny_1_13
 L lin_xny_1_14
 L lin_xny_1_15
 L lin_xny_1_16
 L lin_xny_1_17
 L lin_xny_1_18
 L lin_xny_1_19
 L lin_xny_1_20
 L lin_xny_1_21
 L lin_xny_1_22
 L lin_xny_1_23
 L lin_xny_1_24
 L lin_xny_2_0
 L lin_xny_2_1
 L lin_xny_2_2
 L lin_xny_2_3
 L lin_xny_2_4
 L lin_xny_2_5
 L lin_xny_2_6
 L lin_xny_2_7
 L lin_xny_2_8
 L lin_xny_2_9
 L lin_xny_2_10
 L lin_xny_2_11
 L lin_xny_2_12
 L lin_xny_2_13
 L lin_xny_2_14
 L lin_xny_2_15
 L lin_xny_2_16
 L lin_xny_2_17
 L lin_xny_2_18
 L lin_xny_2_19
 L lin_xny_2_20
 L lin_xny_2_21
 L lin_xny_2_22
 L lin_xny_2_23
 L lin_xny_2_24
 L lin_xny_3_0
 L lin_xny_3_1
 L lin_xny_3_2
 L lin_xny_3_3
 L lin_xny_3_4
 L lin_xny_3_5
 L lin_xny_3_6
 L lin_xny_3_7
 L lin_xny_3_8
 L lin_xny_3_9
 L lin_xny_3_10
 L lin_xny_3_11
 L lin_xny_3_12
 L lin_xny_3_13
 L lin_xny_3_14
 L lin_xny_3_15
 L lin_xny_3_16
 L lin_xny_3_17
 L lin_xny_3_18
 L lin_xny_3_19
 L lin_xny_3_20
 L lin_xny_3_21
 L lin_xny_3_22
 L lin_xny_3_23
 L lin_xny_3_24
 L lin_nxy_1_0
 L lin_nxy_1_1
 L lin_nxy_1_2
 L lin_nxy_1_3
 L lin_nxy_1_4
 L lin_nxy_1_5
 L lin_nxy_1_6
 L lin_nxy_1_7
 L lin_nxy_1_8
 L lin_nxy_1_9
 L lin_nxy_1_10
 L lin_nxy_1_11
 L lin_nxy_1_12
 L lin_nxy_1_13
 L lin_nxy_1_14
 L lin_nxy_1_15
 L lin_nxy_1_16
 L lin_nxy_1_17
 L lin_nxy_1_18
 L lin_nxy_1_19
 L lin_nxy_1_20
 L lin_nxy_1_21
 L lin_nxy_1_22
 L lin_nxy_1_23
 L lin_nxy_1_24
 L lin_nxy_2_0
 L lin_nxy_2_1
 L lin_nxy_2_2
 L lin_nxy_2_3
 L lin_nxy_2_4
 L lin_nxy_2_5
 L lin_nxy_2_6
 L lin_nxy_2_7
 L lin_nxy_2_8
 L lin_nxy_2_9
 L lin_nxy_2_10
 L lin_nxy_2_11
 L lin_nxy_2_12
 L lin_nxy_2_13
 L lin_nxy_2_14
 L lin_nxy_2_15
 L lin_nxy_2_16
 L lin_nxy_2_17
 L lin_nxy_2_18
 L lin_nxy_2_19
 L lin_nxy_2_20
 L lin_nxy_2_21
 L lin_nxy_2_22
 L lin_nxy_2_23
 L lin_nxy_2_24
 L lin_nxy_3_0
 L lin_nxy_3_1
 L lin_nxy_3_2
 L lin_nxy_3_3
 L lin_nxy_3_4
 L lin_nxy_3_5
 L lin_nxy_3_6
 L lin_nxy_3_7
 L lin_nxy_3_8
 L lin_nxy_3_9
 L lin_nxy_3_10
 L lin_nxy_3_11
 L lin_nxy_3_12
 L lin_nxy_3_13
 L lin_nxy_3_14
 L lin_nxy_3_15
 L lin_nxy_3_16
 L lin_nxy_3_17
 L lin_nxy_3_18
 L lin_nxy_3_19
 L lin_nxy_3_20
 L lin_nxy_3_21
 L lin_nxy_3_22
 L lin_nxy_3_23
 L lin_nxy_3_24
 L lin_nxny_1_0
 L lin_nxny_1_1
 L lin_nxny_1_2
 L lin_nxny_1_3
 L lin_nxny_1_4
 L lin_nxny_1_5
 L lin_nxny_1_6
 L lin_nxny_1_7
 L lin_nxny_1_8
 L lin_nxny_1_9
 L lin_nxny_1_10
 L lin_nxny_1_11
 L lin_nxny_1_12
 L lin_nxny_1_13
 L lin_nxny_1_14
 L lin_nxny_1_15
 L lin_nxny_1_16
 L lin_nxny_1_17
 L lin_nxny_1_18
 L lin_nxny_1_19
 L lin_nxny_1_20
 L lin_nxny_1_21
 L lin_nxny_1_22
 L lin_nxny_1_23
 L lin_nxny_1_24
 L lin_nxny_2_0
 L lin_nxny_2_1
 L lin_nxny_2_2
 L lin_nxny_2_3
 L lin_nxny_2_4
 L lin_nxny_2_5
 L lin_nxny_2_6
 L lin_nxny_2_7
 L lin_nxny_2_8
 L lin_nxny_2_9
 L lin_nxny_2_10
 L lin_nxny_2_11
 L lin_nxny_2_12
 L lin_nxny_2_13
 L lin_nxny_2_14
 L lin_nxny_2_15
 L lin_nxny_2_16
 L lin_nxny_2_17
 L lin_nxny_2_18
 L lin_nxny_2_19
 L lin_nxny_2_20
 L lin_nxny_2_21
 L lin_nxny_2_22
 L lin_nxny_2_23
 L lin_nxny_2_24
 L lin_nxny_3_0
 L lin_nxny_3_1
 L lin_nxny_3_2
 L lin_nxny_3_3
 L lin_nxny_3_4
 L lin_nxny_3_5
 L lin_nxny_3_6
 L lin_nxny_3_7
 L lin_nxny_3_8
 L lin_nxny_3_9
 L lin_nxny_3_10
 L lin_nxny_3_11
 L lin_nxny_3_12
 L lin_nxny_3_13
 L lin_nxny_3_14
 L lin_nxny_3_15
 L lin_nxny_3_16
 L lin_nxny_3_17
 L lin_nxny_3_18
 L lin_nxny_3_19
 L lin_nxny_3_20
 L lin_nxny_3_21
 L lin_nxny_3_22
 L lin_nxny_3_23
 L lin_nxny_3_24
COLUMNS
 x0 cost 0
 x0 DKP 1600
 x0 lin_xy_1_0 -1
 x0 lin_xy_3_0 1
 x0 lin_xny_1_0 -1
 x0 lin_xny_3_0 1
 x0 lin_nxy_1_0 1
 x0 lin_nxy_3_0 -1
 x0 lin_nxny_1_0 1
 x0 lin_nxny_3_0 -1
 x1 cost 0
 x1 DKP 2300
 x1 lin_xy_1_1 -1
 x1 lin_xy_3_1 1
 x1 lin_xny_1_1 -1
 x1 lin_xny_3_1 1
 x1 lin_nxy_1_1 1
 x1 lin_nxy_3_1 -1
 x1 lin_nxny_1_1 1
 x1 lin_nxny_3_1 -1
 x2 cost 0
 x2 DKP 2400
 x2 lin_xy_1_2 -1
 x2 lin_xy_3_2 1
 x2 lin_xny_1_2 -1
 x2 lin_xny_3_2 1
 x2 lin_nxy_1_2 1
 x2 lin_nxy_3_2 -1
 x2 lin_nxny_1_2 1
 x2 lin_nxny_3_2 -1
 x3 cost 0
 x3 DKP 1300
 x3 lin_xy_1_3 -1
 x3 lin_xy_3_3 1
 x3 lin_xny_1_3 -1
 x3 lin_xny_3_3 1
 x3 lin_nxy_1_3 1
 x3 lin_nxy_3_3 -1
 x3 lin_nxny_1_3 1
 x3 lin_nxny_3_3 -1
 x4 cost 0
 x4 DKP 1900
 x4 lin_xy_1_4 -1
 x4 lin_xy_3_4 1
 x4 lin_xny_1_4 -1
 x4 lin_xny_3_4 1
 x4 lin_nxy_1_4 1
 x4 lin_nxy_3_4 -1
 x4 lin_nxny_1_4 1
 x4 lin_nxny_3_4 -1
 x5 cost 0
 x5 DKP 900
 x5 lin_xy_1_5 -1
 x5 lin_xy_3_5 1
 x5 lin_xny_1_5 -1
 x5 lin_xny_3_5 1
 x5 lin_nxy_1_5 1
 x5 lin_nxy_3_5 -1
 x5 lin_nxny_1_5 1
 x5 lin_nxny_3_5 -1
 x6 cost 0
 x6 DKP 500
 x6 lin_xy_1_6 -1
 x6 lin_xy_3_6 1
 x6 lin_xny_1_6 -1
 x6 lin_xny_3_6 1
 x6 lin_nxy_1_6 1
 x6 lin_nxy_3_6 -1
 x6 lin_nxny_1_6 1
 x6 lin_nxny_3_6 -1
 x7 cost 0
 x7 DKP 2100
 x7 lin_xy_1_7 -1
 x7 lin_xy_3_7 1
 x7 lin_xny_1_7 -1
 x7 lin_xny_3_7 1
 x7 lin_nxy_1_7 1
 x7 lin_nxy_3_7 -1
 x7 lin_nxny_1_7 1
 x7 lin_nxny_3_7 -1
 x8 cost 0
 x8 DKP 600
 x8 lin_xy_1_8 -1
 x8 lin_xy_3_8 1
 x8 lin_xny_1_8 -1
 x8 lin_xny_3_8 1
 x8 lin_nxy_1_8 1
 x8 lin_nxy_3_8 -1
 x8 lin_nxny_1_8 1
 x8 lin_nxny_3_8 -1
 x9 cost 0
 x9 DKP 200
 x9 lin_xy_1_9 -1
 x9 lin_xy_3_9 1
 x9 lin_xny_1_9 -1
 x9 lin_xny_3_9 1
 x9 lin_nxy_1_9 1
 x9 lin_nxy_3_9 -1
 x9 lin_nxny_1_9 1
 x9 lin_nxny_3_9 -1
 x10 cost 0
 x10 DKP 800
 x10 lin_xy_1_10 -1
 x10 lin_xy_3_10 1
 x10 lin_xny_1_10 -1
 x10 lin_xny_3_10 1
 x10 lin_nxy_1_10 1
 x10 lin_nxy_3_10 -1
 x10 lin_nxny_1_10 1
 x10 lin_nxny_3_10 -1
 x11 cost 0
 x11 DKP 400
 x11 lin_xy_1_11 -1
 x11 lin_xy_3_11 1
 x11 lin_xny_1_11 -1
 x11 lin_xny_3_11 1
 x11 lin_nxy_1_11 1
 x11 lin_nxy_3_11 -1
 x11 lin_nxny_1_11 1
 x11 lin_nxny_3_11 -1
 x12 cost 0
 x12 DKP 2400
 x12 lin_xy_1_12 -1
 x12 lin_xy_3_12 1
 x12 lin_xny_1_12 -1
 x12 lin_xny_3_12 1
 x12 lin_nxy_1_12 1
 x12 lin_nxy_3_12 -1
 x12 lin_nxny_1_12 1
 x12 lin_nxny_3_12 -1
 x13 cost 0
 x13 DKP 400
 x13 lin_xy_1_13 -1
 x13 lin_xy_3_13 1
 x13 lin_xny_1_13 -1
 x13 lin_xny_3_13 1
 x13 lin_nxy_1_13 1
 x13 lin_nxy_3_13 -1
 x13 lin_nxny_1_13 1
 x13 lin_nxny_3_13 -1
 x14 cost 0
 x14 DKP 2100
 x14 lin_xy_1_14 -1
 x14 lin_xy_3_14 1
 x14 lin_xny_1_14 -1
 x14 lin_xny_3_14 1
 x14 lin_nxy_1_14 1
 x14 lin_nxy_3_14 -1
 x14 lin_nxny_1_14 1
 x14 lin_nxny_3_14 -1
 x15 cost 0
 x15 DKP 1400
 x15 lin_xy_1_15 -1
 x15 lin_xy_3_15 1
 x15 lin_xny_1_15 -1
 x15 lin_xny_3_15 1
 x15 lin_nxy_1_15 1
 x15 lin_nxy_3_15 -1
 x15 lin_nxny_1_15 1
 x15 lin_nxny_3_15 -1
 x16 cost 0
 x16 DKP 400
 x16 lin_xy_1_16 -1
 x16 lin_xy_3_16 1
 x16 lin_xny_1_16 -1
 x16 lin_xny_3_16 1
 x16 lin_nxy_1_16 1
 x16 lin_nxy_3_16 -1
 x16 lin_nxny_1_16 1
 x16 lin_nxny_3_16 -1
 x17 cost 0
 x17 DKP 200
 x17 lin_xy_1_17 -1
 x17 lin_xy_3_17 1
 x17 lin_xny_1_17 -1
 x17 lin_xny_3_17 1
 x17 lin_nxy_1_17 1
 x17 lin_nxy_3_17 -1
 x17 lin_nxny_1_17 1
 x17 lin_nxny_3_17 -1
 x18 cost 0
 x18 DKP 2300
 x18 lin_xy_1_18 -1
 x18 lin_xy_3_18 1
 x18 lin_xny_1_18 -1
 x18 lin_xny_3_18 1
 x18 lin_nxy_1_18 1
 x18 lin_nxy_3_18 -1
 x18 lin_nxny_1_18 1
 x18 lin_nxny_3_18 -1
 x19 cost 0
 x19 DKP 1700
 x19 lin_xy_1_19 -1
 x19 lin_xy_3_19 1
 x19 lin_xny_1_19 -1
 x19 lin_xny_3_19 1
 x19 lin_nxy_1_19 1
 x19 lin_nxy_3_19 -1
 x19 lin_nxny_1_19 1
 x19 lin_nxny_3_19 -1
 x20 cost 0
 x20 DKP 1600
 x20 lin_xy_1_20 -1
 x20 lin_xy_3_20 1
 x20 lin_xny_1_20 -1
 x20 lin_xny_3_20 1
 x20 lin_nxy_1_20 1
 x20 lin_nxy_3_20 -1
 x20 lin_nxny_1_20 1
 x20 lin_nxny_3_20 -1
 x21 cost 0
 x21 DKP 1000
 x21 lin_xy_1_21 -1
 x21 lin_xy_3_21 1
 x21 lin_xny_1_21 -1
 x21 lin_xny_3_21 1
 x21 lin_nxy_1_21 1
 x21 lin_nxy_3_21 -1
 x21 lin_nxny_1_21 1
 x21 lin_nxny_3_21 -1
 x22 cost 0
 x22 DKP 1700
 x22 lin_xy_1_22 -1
 x22 lin_xy_3_22 1
 x22 lin_xny_1_22 -1
 x22 lin_xny_3_22 1
 x22 lin_nxy_1_22 1
 x22 lin_nxy_3_22 -1
 x22 lin_nxny_1_22 1
 x22 lin_nxny_3_22 -1
 x23 cost 0
 x23 DKP 1300
 x23 lin_xy_1_23 -1
 x23 lin_xy_3_23 1
 x23 lin_xny_1_23 -1
 x23 lin_xny_3_23 1
 x23 lin_nxy_1_23 1
 x23 lin_nxy_3_23 -1
 x23 lin_nxny_1_23 1
 x23 lin_nxny_3_23 -1
 x24 cost 0
 x24 DKP 1400
 x24 lin_xy_1_24 -1
 x24 lin_xy_3_24 1
 x24 lin_xny_1_24 -1
 x24 lin_xny_3_24 1
 x24 lin_nxy_1_24 1
 x24 lin_nxy_3_24 -1
 x24 lin_nxny_1_24 1
 x24 lin_nxny_3_24 -1
 y0 cost 0
 y0 AKP 1900
 y0 lin_xy_2_0 -1
 y0 lin_xy_3_0 -1
 y0 lin_xny_2_0 1
 y0 lin_xny_3_0 -1
 y0 lin_nxy_2_0 -1
 y0 lin_nxy_3_0 1
 y0 lin_nxny_2_0 1
 y0 lin_nxny_3_0 -1
 y1 cost 0
 y1 AKP 2200
 y1 lin_xy_2_1 -1
 y1 lin_xy_3_1 -1
 y1 lin_xny_2_1 1
 y1 lin_xny_3_1 -1
 y1 lin_nxy_2_1 -1
 y1 lin_nxy_3_1 1
 y1 lin_nxny_2_1 1
 y1 lin_nxny_3_1 -1
 y2 cost 0
 y2 AKP 500
 y2 lin_xy_2_2 -1
 y2 lin_xy_3_2 -1
 y2 lin_xny_2_2 1
 y2 lin_xny_3_2 -1
 y2 lin_nxy_2_2 -1
 y2 lin_nxy_3_2 1
 y2 lin_nxny_2_2 1
 y2 lin_nxny_3_2 -1
 y3 cost 0
 y3 AKP 1000
 y3 lin_xy_2_3 -1
 y3 lin_xy_3_3 -1
 y3 lin_xny_2_3 1
 y3 lin_xny_3_3 -1
 y3 lin_nxy_2_3 -1
 y3 lin_nxy_3_3 1
 y3 lin_nxny_2_3 1
 y3 lin_nxny_3_3 -1
 y4 cost 0
 y4 AKP 100
 y4 lin_xy_2_4 -1
 y4 lin_xy_3_4 -1
 y4 lin_xny_2_4 1
 y4 lin_xny_3_4 -1
 y4 lin_nxy_2_4 -1
 y4 lin_nxy_3_4 1
 y4 lin_nxny_2_4 1
 y4 lin_nxny_3_4 -1
 y5 cost 0
 y5 AKP 1100
 y5 lin_xy_2_5 -1
 y5 lin_xy_3_5 -1
 y5 lin_xny_2_5 1
 y5 lin_xny_3_5 -1
 y5 lin_nxy_2_5 -1
 y5 lin_nxy_3_5 1
 y5 lin_nxny_2_5 1
 y5 lin_nxny_3_5 -1
 y6 cost 0
 y6 AKP 1600
 y6 lin_xy_2_6 -1
 y6 lin_xy_3_6 -1
 y6 lin_xny_2_6 1
 y6 lin_xny_3_6 -1
 y6 lin_nxy_2_6 -1
 y6 lin_nxy_3_6 1
 y6 lin_nxny_2_6 1
 y6 lin_nxny_3_6 -1
 y7 cost 0
 y7 AKP 1100
 y7 lin_xy_2_7 -1
 y7 lin_xy_3_7 -1
 y7 lin_xny_2_7 1
 y7 lin_xny_3_7 -1
 y7 lin_nxy_2_7 -1
 y7 lin_nxy_3_7 1
 y7 lin_nxny_2_7 1
 y7 lin_nxny_3_7 -1
 y8 cost 0
 y8 AKP 200
 y8 lin_xy_2_8 -1
 y8 lin_xy_3_8 -1
 y8 lin_xny_2_8 1
 y8 lin_xny_3_8 -1
 y8 lin_nxy_2_8 -1
 y8 lin_nxy_3_8 1
 y8 lin_nxny_2_8 1
 y8 lin_nxny_3_8 -1
 y9 cost 0
 y9 AKP 2300
 y9 lin_xy_2_9 -1
 y9 lin_xy_3_9 -1
 y9 lin_xny_2_9 1
 y9 lin_xny_3_9 -1
 y9 lin_nxy_2_9 -1
 y9 lin_nxy_3_9 1
 y9 lin_nxny_2_9 1
 y9 lin_nxny_3_9 -1
 y10 cost 0
 y10 AKP 1800
 y10 lin_xy_2_10 -1
 y10 lin_xy_3_10 -1
 y10 lin_xny_2_10 1
 y10 lin_xny_3_10 -1
 y10 lin_nxy_2_10 -1
 y10 lin_nxy_3_10 1
 y10 lin_nxny_2_10 1
 y10 lin_nxny_3_10 -1
 y11 cost 0
 y11 AKP 1900
 y11 lin_xy_2_11 -1
 y11 lin_xy_3_11 -1
 y11 lin_xny_2_11 1
 y11 lin_xny_3_11 -1
 y11 lin_nxy_2_11 -1
 y11 lin_nxy_3_11 1
 y11 lin_nxny_2_11 1
 y11 lin_nxny_3_11 -1
 y12 cost 0
 y12 AKP 500
 y12 lin_xy_2_12 -1
 y12 lin_xy_3_12 -1
 y12 lin_xny_2_12 1
 y12 lin_xny_3_12 -1
 y12 lin_nxy_2_12 -1
 y12 lin_nxy_3_12 1
 y12 lin_nxny_2_12 1
 y12 lin_nxny_3_12 -1
 y13 cost 0
 y13 AKP 300
 y13 lin_xy_2_13 -1
 y13 lin_xy_3_13 -1
 y13 lin_xny_2_13 1
 y13 lin_xny_3_13 -1
 y13 lin_nxy_2_13 -1
 y13 lin_nxy_3_13 1
 y13 lin_nxny_2_13 1
 y13 lin_nxny_3_13 -1
 y14 cost 0
 y14 AKP 600
 y14 lin_xy_2_14 -1
 y14 lin_xy_3_14 -1
 y14 lin_xny_2_14 1
 y14 lin_xny_3_14 -1
 y14 lin_nxy_2_14 -1
 y14 lin_nxy_3_14 1
 y14 lin_nxny_2_14 1
 y14 lin_nxny_3_14 -1
 y15 cost 0
 y15 AKP 900
 y15 lin_xy_2_15 -1
 y15 lin_xy_3_15 -1
 y15 lin_xny_2_15 1
 y15 lin_xny_3_15 -1
 y15 lin_nxy_2_15 -1
 y15 lin_nxy_3_15 1
 y15 lin_nxny_2_15 1
 y15 lin_nxny_3_15 -1
 y16 cost 0
 y16 AKP 1200
 y16 lin_xy_2_16 -1
 y16 lin_xy_3_16 -1
 y16 lin_xny_2_16 1
 y16 lin_xny_3_16 -1
 y16 lin_nxy_2_16 -1
 y16 lin_nxy_3_16 1
 y16 lin_nxny_2_16 1
 y16 lin_nxny_3_16 -1
 y17 cost 0
 y17 AKP 1700
 y17 lin_xy_2_17 -1
 y17 lin_xy_3_17 -1
 y17 lin_xny_2_17 1
 y17 lin_xny_3_17 -1
 y17 lin_nxy_2_17 -1
 y17 lin_nxy_3_17 1
 y17 lin_nxny_2_17 1
 y17 lin_nxny_3_17 -1
 y18 cost 0
 y18 AKP 700
 y18 lin_xy_2_18 -1
 y18 lin_xy_3_18 -1
 y18 lin_xny_2_18 1
 y18 lin_xny_3_18 -1
 y18 lin_nxy_2_18 -1
 y18 lin_nxy_3_18 1
 y18 lin_nxny_2_18 1
 y18 lin_nxny_3_18 -1
 y19 cost 0
 y19 AKP 2100
 y19 lin_xy_2_19 -1
 y19 lin_xy_3_19 -1
 y19 lin_xny_2_19 1
 y19 lin_xny_3_19 -1
 y19 lin_nxy_2_19 -1
 y19 lin_nxy_3_19 1
 y19 lin_nxny_2_19 1
 y19 lin_nxny_3_19 -1
 y20 cost 0
 y20 AKP 300
 y20 lin_xy_2_20 -1
 y20 lin_xy_3_20 -1
 y20 lin_xny_2_20 1
 y20 lin_xny_3_20 -1
 y20 lin_nxy_2_20 -1
 y20 lin_nxy_3_20 1
 y20 lin_nxny_2_20 1
 y20 lin_nxny_3_20 -1
 y21 cost 0
 y21 AKP 600
 y21 lin_xy_2_21 -1
 y21 lin_xy_3_21 -1
 y21 lin_xny_2_21 1
 y21 lin_xny_3_21 -1
 y21 lin_nxy_2_21 -1
 y21 lin_nxy_3_21 1
 y21 lin_nxny_2_21 1
 y21 lin_nxny_3_21 -1
 y22 cost 0
 y22 AKP 1000
 y22 lin_xy_2_22 -1
 y22 lin_xy_3_22 -1
 y22 lin_xny_2_22 1
 y22 lin_xny_3_22 -1
 y22 lin_nxy_2_22 -1
 y22 lin_nxy_3_22 1
 y22 lin_nxny_2_22 1
 y22 lin_nxny_3_22 -1
 y23 cost 0
 y23 AKP 2300
 y23 lin_xy_2_23 -1
 y23 lin_xy_3_23 -1
 y23 lin_xny_2_23 1
 y23 lin_xny_3_23 -1
 y23 lin_nxy_2_23 -1
 y23 lin_nxy_3_23 1
 y23 lin_nxny_2_23 1
 y23 lin_nxny_3_23 -1
 y24 cost 0
 y24 AKP 1700
 y24 lin_xy_2_24 -1
 y24 lin_xy_3_24 -1
 y24 lin_xny_2_24 1
 y24 lin_xny_3_24 -1
 y24 lin_nxy_2_24 -1
 y24 lin_nxy_3_24 1
 y24 lin_nxny_2_24 1
 y24 lin_nxny_3_24 -1
 z_xy0 cost 16.2
 z_xy0 lin_xy_1_0 1
 z_xy0 lin_xy_2_0 1
 z_xy0 lin_xy_3_0 -1
 z_xy1 cost 15.0
 z_xy1 lin_xy_1_1 1
 z_xy1 lin_xy_2_1 1
 z_xy1 lin_xy_3_1 -1
 z_xy2 cost 9.6
 z_xy2 lin_xy_1_2 1
 z_xy2 lin_xy_2_2 1
 z_xy2 lin_xy_3_2 -1
 z_xy3 cost 14.399999999999999
 z_xy3 lin_xy_1_3 1
 z_xy3 lin_xy_2_3 1
 z_xy3 lin_xy_3_3 -1
 z_xy4 cost 19.8
 z_xy4 lin_xy_1_4 1
 z_xy4 lin_xy_2_4 1
 z_xy4 lin_xy_3_4 -1
 z_xy5 cost 14.399999999999999
 z_xy5 lin_xy_1_5 1
 z_xy5 lin_xy_2_5 1
 z_xy5 lin_xy_3_5 -1
 z_xy6 cost 19.2
 z_xy6 lin_xy_1_6 1
 z_xy6 lin_xy_2_6 1
 z_xy6 lin_xy_3_6 -1
 z_xy7 cost 15.0
 z_xy7 lin_xy_1_7 1
 z_xy7 lin_xy_2_7 1
 z_xy7 lin_xy_3_7 -1
 z_xy8 cost 14.399999999999999
 z_xy8 lin_xy_1_8 1
 z_xy8 lin_xy_2_8 1
 z_xy8 lin_xy_3_8 -1
 z_xy9 cost 13.2
 z_xy9 lin_xy_1_9 1
 z_xy9 lin_xy_2_9 1
 z_xy9 lin_xy_3_9 -1
 z_xy10 cost 7.199999999999999
 z_xy10 lin_xy_1_10 1
 z_xy10 lin_xy_2_10 1
 z_xy10 lin_xy_3_10 -1
 z_xy11 cost 18.0
 z_xy11 lin_xy_1_11 1
 z_xy11 lin_xy_2_11 1
 z_xy11 lin_xy_3_11 -1
 z_xy12 cost 14.399999999999999
 z_xy12 lin_xy_1_12 1
 z_xy12 lin_xy_2_12 1
 z_xy12 lin_xy_3_12 -1
 z_xy13 cost 24.0
 z_xy13 lin_xy_1_13 1
 z_xy13 lin_xy_2_13 1
 z_xy13 lin_xy_3_13 -1
 z_xy14 cost 18.0
 z_xy14 lin_xy_1_14 1
 z_xy14 lin_xy_2_14 1
 z_xy14 lin_xy_3_14 -1
 z_xy15 cost 16.8
 z_xy15 lin_xy_1_15 1
 z_xy15 lin_xy_2_15 1
 z_xy15 lin_xy_3_15 -1
 z_xy16 cost 16.8
 z_xy16 lin_xy_1_16 1
 z_xy16 lin_xy_2_16 1
 z_xy16 lin_xy_3_16 -1
 z_xy17 cost 12.6
 z_xy17 lin_xy_1_17 1
 z_xy17 lin_xy_2_17 1
 z_xy17 lin_xy_3_17 -1
 z_xy18 cost 9.6
 z_xy18 lin_xy_1_18 1
 z_xy18 lin_xy_2_18 1
 z_xy18 lin_xy_3_18 -1
 z_xy19 cost 19.2
 z_xy19 lin_xy_1_19 1
 z_xy19 lin_xy_2_19 1
 z_xy19 lin_xy_3_19 -1
 z_xy20 cost 19.8
 z_xy20 lin_xy_1_20 1
 z_xy20 lin_xy_2_20 1
 z_xy20 lin_xy_3_20 -1
 z_xy21 cost 25.8
 z_xy21 lin_xy_1_21 1
 z_xy21 lin_xy_2_21 1
 z_xy21 lin_xy_3_21 -1
 z_xy22 cost 27.599999999999998
 z_xy22 lin_xy_1_22 1
 z_xy22 lin_xy_2_22 1
 z_xy22 lin_xy_3_22 -1
 z_xy23 cost 11.4
 z_xy23 lin_xy_1_23 1
 z_xy23 lin_xy_2_23 1
 z_xy23 lin_xy_3_23 -1
 z_xy24 cost 13.2
 z_xy24 lin_xy_1_24 1
 z_xy24 lin_xy_2_24 1
 z_xy24 lin_xy_3_24 -1
 z_xny0 cost 20.25
 z_xny0 lin_xny_1_0 1
 z_xny0 lin_xny_2_0 1
 z_xny0 lin_xny_3_0 -1
 z_xny1 cost 18.75
 z_xny1 lin_xny_1_1 1
 z_xny1 lin_xny_2_1 1
 z_xny1 lin_xny_3_1 -1
 z_xny2 cost 12.0
 z_xny2 lin_xny_1_2 1
 z_xny2 lin_xny_2_2 1
 z_xny2 lin_xny_3_2 -1
 z_xny3 cost 18.0
 z_xny3 lin_xny_1_3 1
 z_xny3 lin_xny_2_3 1
 z_xny3 lin_xny_3_3 -1
 z_xny4 cost 24.75
 z_xny4 lin_xny_1_4 1
 z_xny4 lin_xny_2_4 1
 z_xny4 lin_xny_3_4 -1
 z_xny5 cost 18.0
 z_xny5 lin_xny_1_5 1
 z_xny5 lin_xny_2_5 1
 z_xny5 lin_xny_3_5 -1
 z_xny6 cost 24.0
 z_xny6 lin_xny_1_6 1
 z_xny6 lin_xny_2_6 1
 z_xny6 lin_xny_3_6 -1
 z_xny7 cost 18.75
 z_xny7 lin_xny_1_7 1
 z_xny7 lin_xny_2_7 1
 z_xny7 lin_xny_3_7 -1
 z_xny8 cost 18.0
 z_xny8 lin_xny_1_8 1
 z_xny8 lin_xny_2_8 1
 z_xny8 lin_xny_3_8 -1
 z_xny9 cost 16.5
 z_xny9 lin_xny_1_9 1
 z_xny9 lin_xny_2_9 1
 z_xny9 lin_xny_3_9 -1
 z_xny10 cost 9.0
 z_xny10 lin_xny_1_10 1
 z_xny10 lin_xny_2_10 1
 z_xny10 lin_xny_3_10 -1
 z_xny11 cost 22.5
 z_xny11 lin_xny_1_11 1
 z_xny11 lin_xny_2_11 1
 z_xny11 lin_xny_3_11 -1
 z_xny12 cost 18.0
 z_xny12 lin_xny_1_12 1
 z_xny12 lin_xny_2_12 1
 z_xny12 lin_xny_3_12 -1
 z_xny13 cost 30.0
 z_xny13 lin_xny_1_13 1
 z_xny13 lin_xny_2_13 1
 z_xny13 lin_xny_3_13 -1
 z_xny14 cost 22.5
 z_xny14 lin_xny_1_14 1
 z_xny14 lin_xny_2_14 1
 z_xny14 lin_xny_3_14 -1
 z_xny15 cost 21.0
 z_xny15 lin_xny_1_15 1
 z_xny15 lin_xny_2_15 1
 z_xny15 lin_xny_3_15 -1
 z_xny16 cost 21.0
 z_xny16 lin_xny_1_16 1
 z_xny16 lin_xny_2_16 1
 z_xny16 lin_xny_3_16 -1
 z_xny17 cost 15.75
 z_xny17 lin_xny_1_17 1
 z_xny17 lin_xny_2_17 1
 z_xny17 lin_xny_3_17 -1
 z_xny18 cost 12.0
 z_xny18 lin_xny_1_18 1
 z_xny18 lin_xny_2_18 1
 z_xny18 lin_xny_3_18 -1
 z_xny19 cost 24.0
 z_xny19 lin_xny_1_19 1
 z_xny19 lin_xny_2_19 1
 z_xny19 lin_xny_3_19 -1
 z_xny20 cost 24.75
 z_xny20 lin_xny_1_20 1
 z_xny20 lin_xny_2_20 1
 z_xny20 lin_xny_3_20 -1
 z_xny21 cost 32.25
 z_xny21 lin_xny_1_21 1
 z_xny21 lin_xny_2_21 1
 z_xny21 lin_xny_3_21 -1
 z_xny22 cost 34.5
 z_xny22 lin_xny_1_22 1
 z_xny22 lin_xny_2_22 1
 z_xny22 lin_xny_3_22 -1
 z_xny23 cost 14.25
 z_xny23 lin_xny_1_23 1
 z_xny23 lin_xny_2_23 1
 z_xny23 lin_xny_3_23 -1
 z_xny24 cost 16.5
 z_xny24 lin_xny_1_24 1
 z_xny24 lin_xny_2_24 1
 z_xny24 lin_xny_3_24 -1
 z_nxy0 cost 12.959999999999999
 z_nxy0 lin_nxy_1_0 1
 z_nxy0 lin_nxy_2_0 1
 z_nxy0 lin_nxy_3_0 -1
 z_nxy1 cost 12.0
 z_nxy1 lin_nxy_1_1 1
 z_nxy1 lin_nxy_2_1 1
 z_nxy1 lin_nxy_3_1 -1
 z_nxy2 cost 7.68
 z_nxy2 lin_nxy_1_2 1
 z_nxy2 lin_nxy_2_2 1
 z_nxy2 lin_nxy_3_2 -1
 z_nxy3 cost 11.52
 z_nxy3 lin_nxy_1_3 1
 z_nxy3 lin_nxy_2_3 1
 z_nxy3 lin_nxy_3_3 -1
 z_nxy4 cost 15.84
 z_nxy4 lin_nxy_1_4 1
 z_nxy4 lin_nxy_2_4 1
 z_nxy4 lin_nxy_3_4 -1
 z_nxy5 cost 11.52
 z_nxy5 lin_nxy_1_5 1
 z_nxy5 lin_nxy_2_5 1
 z_nxy5 lin_nxy_3_5 -1
 z_nxy6 cost 15.36
 z_nxy6 lin_nxy_1_6 1
 z_nxy6 lin_nxy_2_6 1
 z_nxy6 lin_nxy_3_6 -1
 z_nxy7 cost 12.0
 z_nxy7 lin_nxy_1_7 1
 z_nxy7 lin_nxy_2_7 1
 z_nxy7 lin_nxy_3_7 -1
 z_nxy8 cost 11.52
 z_nxy8 lin_nxy_1_8 1
 z_nxy8 lin_nxy_2_8 1
 z_nxy8 lin_nxy_3_8 -1
 z_nxy9 cost 10.559999999999999
 z_nxy9 lin_nxy_1_9 1
 z_nxy9 lin_nxy_2_9 1
 z_nxy9 lin_nxy_3_9 -1
 z_nxy10 cost 5.76
 z_nxy10 lin_nxy_1_10 1
 z_nxy10 lin_nxy_2_10 1
 z_nxy10 lin_nxy_3_10 -1
 z_nxy11 cost 14.399999999999999
 z_nxy11 lin_nxy_1_11 1
 z_nxy11 lin_nxy_2_11 1
 z_nxy11 lin_nxy_3_11 -1
 z_nxy12 cost 11.52
 z_nxy12 lin_nxy_1_12 1
 z_nxy12 lin_nxy_2_12 1
 z_nxy12 lin_nxy_3_12 -1
 z_nxy13 cost 19.2
 z_nxy13 lin_nxy_1_13 1
 z_nxy13 lin_nxy_2_13 1
 z_nxy13 lin_nxy_3_13 -1
 z_nxy14 cost 14.399999999999999
 z_nxy14 lin_nxy_1_14 1
 z_nxy14 lin_nxy_2_14 1
 z_nxy14 lin_nxy_3_14 -1
 z_nxy15 cost 13.44
 z_nxy15 lin_nxy_1_15 1
 z_nxy15 lin_nxy_2_15 1
 z_nxy15 lin_nxy_3_15 -1
 z_nxy16 cost 13.44
 z_nxy16 lin_nxy_1_16 1
 z_nxy16 lin_nxy_2_16 1
 z_nxy16 lin_nxy_3_16 -1
 z_nxy17 cost 10.08
 z_nxy17 lin_nxy_1_17 1
 z_nxy17 lin_nxy_2_17 1
 z_nxy17 lin_nxy_3_17 -1
 z_nxy18 cost 7.68
 z_nxy18 lin_nxy_1_18 1
 z_nxy18 lin_nxy_2_18 1
 z_nxy18 lin_nxy_3_18 -1
 z_nxy19 cost 15.36
 z_nxy19 lin_nxy_1_19 1
 z_nxy19 lin_nxy_2_19 1
 z_nxy19 lin_nxy_3_19 -1
 z_nxy20 cost 15.84
 z_nxy20 lin_nxy_1_20 1
 z_nxy20 lin_nxy_2_20 1
 z_nxy20 lin_nxy_3_20 -1
 z_nxy21 cost 20.64
 z_nxy21 lin_nxy_1_21 1
 z_nxy21 lin_nxy_2_21 1
 z_nxy21 lin_nxy_3_21 -1
 z_nxy22 cost 22.08
 z_nxy22 lin_nxy_1_22 1
 z_nxy22 lin_nxy_2_22 1
 z_nxy22 lin_nxy_3_22 -1
 z_nxy23 cost 9.12
 z_nxy23 lin_nxy_1_23 1
 z_nxy23 lin_nxy_2_23 1
 z_nxy23 lin_nxy_3_23 -1
 z_nxy24 cost 10.559999999999999
 z_nxy24 lin_nxy_1_24 1
 z_nxy24 lin_nxy_2_24 1
 z_nxy24 lin_nxy_3_24 -1
 z_nxny0 cost 27
 z_nxny0 lin_nxny_1_0 1
 z_nxny0 lin_nxny_2_0 1
 z_nxny0 lin_nxny_3_0 -1
 z_nxny1 cost 25
 z_nxny1 lin_nxny_1_1 1
 z_nxny1 lin_nxny_2_1 1
 z_nxny1 lin_nxny_3_1 -1
 z_nxny2 cost 16
 z_nxny2 lin_nxny_1_2 1
 z_nxny2 lin_nxny_2_2 1
 z_nxny2 lin_nxny_3_2 -1
 z_nxny3 cost 24
 z_nxny3 lin_nxny_1_3 1
 z_nxny3 lin_nxny_2_3 1
 z_nxny3 lin_nxny_3_3 -1
 z_nxny4 cost 33
 z_nxny4 lin_nxny_1_4 1
 z_nxny4 lin_nxny_2_4 1
 z_nxny4 lin_nxny_3_4 -1
 z_nxny5 cost 24
 z_nxny5 lin_nxny_1_5 1
 z_nxny5 lin_nxny_2_5 1
 z_nxny5 lin_nxny_3_5 -1
 z_nxny6 cost 32
 z_nxny6 lin_nxny_1_6 1
 z_nxny6 lin_nxny_2_6 1
 z_nxny6 lin_nxny_3_6 -1
 z_nxny7 cost 25
 z_nxny7 lin_nxny_1_7 1
 z_nxny7 lin_nxny_2_7 1
 z_nxny7 lin_nxny_3_7 -1
 z_nxny8 cost 24
 z_nxny8 lin_nxny_1_8 1
 z_nxny8 lin_nxny_2_8 1
 z_nxny8 lin_nxny_3_8 -1
 z_nxny9 cost 22
 z_nxny9 lin_nxny_1_9 1
 z_nxny9 lin_nxny_2_9 1
 z_nxny9 lin_nxny_3_9 -1
 z_nxny10 cost 12
 z_nxny10 lin_nxny_1_10 1
 z_nxny10 lin_nxny_2_10 1
 z_nxny10 lin_nxny_3_10 -1
 z_nxny11 cost 30
 z_nxny11 lin_nxny_1_11 1
 z_nxny11 lin_nxny_2_11 1
 z_nxny11 lin_nxny_3_11 -1
 z_nxny12 cost 24
 z_nxny12 lin_nxny_1_12 1
 z_nxny12 lin_nxny_2_12 1
 z_nxny12 lin_nxny_3_12 -1
 z_nxny13 cost 40
 z_nxny13 lin_nxny_1_13 1
 z_nxny13 lin_nxny_2_13 1
 z_nxny13 lin_nxny_3_13 -1
 z_nxny14 cost 30
 z_nxny14 lin_nxny_1_14 1
 z_nxny14 lin_nxny_2_14 1
 z_nxny14 lin_nxny_3_14 -1
 z_nxny15 cost 28
 z_nxny15 lin_nxny_1_15 1
 z_nxny15 lin_nxny_2_15 1
 z_nxny15 lin_nxny_3_15 -1
 z_nxny16 cost 28
 z_nxny16 lin_nxny_1_16 1
 z_nxny16 lin_nxny_2_16 1
 z_nxny16 lin_nxny_3_16 -1
 z_nxny17 cost 21
 z_nxny17 lin_nxny_1_17 1
 z_nxny17 lin_nxny_2_17 1
 z_nxny17 lin_nxny_3_17 -1
 z_nxny18 cost 16
 z_nxny18 lin_nxny_1_18 1
 z_nxny18 lin_nxny_2_18 1
 z_nxny18 lin_nxny_3_18 -1
 z_nxny19 cost 32
 z_nxny19 lin_nxny_1_19 1
 z_nxny19 lin_nxny_2_19 1
 z_nxny19 lin_nxny_3_19 -1
 z_nxny20 cost 33
 z_nxny20 lin_nxny_1_20 1
 z_nxny20 lin_nxny_2_20 1
 z_nxny20 lin_nxny_3_20 -1
 z_nxny21 cost 43
 z_nxny21 lin_nxny_1_21 1
 z_nxny21 lin_nxny_2_21 1
 z_nxny21 lin_nxny_3_21 -1
 z_nxny22 cost 46
 z_nxny22 lin_nxny_1_22 1
 z_nxny22 lin_nxny_2_22 1
 z_nxny22 lin_nxny_3_22 -1
 z_nxny23 cost 19
 z_nxny23 lin_nxny_1_23 1
 z_nxny23 lin_nxny_2_23 1
 z_nxny23 lin_nxny_3_23 -1
 z_nxny24 cost 22
 z_nxny24 lin_nxny_1_24 1
 z_nxny24 lin_nxny_2_24 1
 z_nxny24 lin_nxny_3_24 -1
RHS
 rhs DKP 9870
 rhs AKP 8880
 rhs lin_xy_1_0 0
 rhs lin_xy_2_0 0
 rhs lin_xy_3_0 1
 rhs lin_xny_1_0 0
 rhs lin_xny_2_0 1
 rhs lin_xny_3_0 0
 rhs lin_nxy_1_0 1
 rhs lin_nxy_2_0 0
 rhs lin_nxy_3_0 0
 rhs lin_nxny_1_0 1
 rhs lin_nxny_2_0 1
 rhs lin_nxny_3_0 -1
 rhs lin_xy_1_1 0
 rhs lin_xy_2_1 0
 rhs lin_xy_3_1 1
 rhs lin_xny_1_1 0
 rhs lin_xny_2_1 1
 rhs lin_xny_3_1 0
 rhs lin_nxy_1_1 1
 rhs lin_nxy_2_1 0
 rhs lin_nxy_3_1 0
 rhs lin_nxny_1_1 1
 rhs lin_nxny_2_1 1
 rhs lin_nxny_3_1 -1
 rhs lin_xy_1_2 0
 rhs lin_xy_2_2 0
 rhs lin_xy_3_2 1
 rhs lin_xny_1_2 0
 rhs lin_xny_2_2 1
 rhs lin_xny_3_2 0
 rhs lin_nxy_1_2 1
 rhs lin_nxy_2_2 0
 rhs lin_nxy_3_2 0
 rhs lin_nxny_1_2 1
 rhs lin_nxny_2_2 1
 rhs lin_nxny_3_2 -1
 rhs lin_xy_1_3 0
 rhs lin_xy_2_3 0
 rhs lin_xy_3_3 1
 rhs lin_xny_1_3 0
 rhs lin_xny_2_3 1
 rhs lin_xny_3_3 0
 rhs lin_nxy_1_3 1
 rhs lin_nxy_2_3 0
 rhs lin_nxy_3_3 0
 rhs lin_nxny_1_3 1
 rhs lin_nxny_2_3 1
 rhs lin_nxny_3_3 -1
 rhs lin_xy_1_4 0
 rhs lin_xy_2_4 0
 rhs lin_xy_3_4 1
 rhs lin_xny_1_4 0
 rhs lin_xny_2_4 1
 rhs lin_xny_3_4 0
 rhs lin_nxy_1_4 1
 rhs lin_nxy_2_4 0
 rhs lin_nxy_3_4 0
 rhs lin_nxny_1_4 1
 rhs lin_nxny_2_4 1
 rhs lin_nxny_3_4 -1
 rhs lin_xy_1_5 0
 rhs lin_xy_2_5 0
 rhs lin_xy_3_5 1
 rhs lin_xny_1_5 0
 rhs lin_xny_2_5 1
 rhs lin_xny_3_5 0
 rhs lin_nxy_1_5 1
 rhs lin_nxy_2_5 0
 rhs lin_nxy_3_5 0
 rhs lin_nxny_1_5 1
 rhs lin_nxny_2_5 1
 rhs lin_nxny_3_5 -1
 rhs lin_xy_1_6 0
 rhs lin_xy_2_6 0
 rhs lin_xy_3_6 1
 rhs lin_xny_1_6 0
 rhs lin_xny_2_6 1
 rhs lin_xny_3_6 0
 rhs lin_nxy_1_6 1
 rhs lin_nxy_2_6 0
 rhs lin_nxy_3_6 0
 rhs lin_nxny_1_6 1
 rhs lin_nxny_2_6 1
 rhs lin_nxny_3_6 -1
 rhs lin_xy_1_7 0
 rhs lin_xy_2_7 0
 rhs lin_xy_3_7 1
 rhs lin_xny_1_7 0
 rhs lin_xny_2_7 1
 rhs lin_xny_3_7 0
 rhs lin_nxy_1_7 1
 rhs lin_nxy_2_7 0
 rhs lin_nxy_3_7 0
 rhs lin_nxny_1_7 1
 rhs lin_nxny_2_7 1
 rhs lin_nxny_3_7 -1
 rhs lin_xy_1_8 0
 rhs lin_xy_2_8 0
 rhs lin_xy_3_8 1
 rhs lin_xny_1_8 0
 rhs lin_xny_2_8 1
 rhs lin_xny_3_8 0
 rhs lin_nxy_1_8 1
 rhs lin_nxy_2_8 0
 rhs lin_nxy_3_8 0
 rhs lin_nxny_1_8 1
 rhs lin_nxny_2_8 1
 rhs lin_nxny_3_8 -1
 rhs lin_xy_1_9 0
 rhs lin_xy_2_9 0
 rhs lin_xy_3_9 1
 rhs lin_xny_1_9 0
 rhs lin_xny_2_9 1
 rhs lin_xny_3_9 0
 rhs lin_nxy_1_9 1
 rhs lin_nxy_2_9 0
 rhs lin_nxy_3_9 0
 rhs lin_nxny_1_9 1
 rhs lin_nxny_2_9 1
 rhs lin_nxny_3_9 -1
 rhs lin_xy_1_10 0
 rhs lin_xy_2_10 0
 rhs lin_xy_3_10 1
 rhs lin_xny_1_10 0
 rhs lin_xny_2_10 1
 rhs lin_xny_3_10 0
 rhs lin_nxy_1_10 1
 rhs lin_nxy_2_10 0
 rhs lin_nxy_3_10 0
 rhs lin_nxny_1_10 1
 rhs lin_nxny_2_10 1
 rhs lin_nxny_3_10 -1
 rhs lin_xy_1_11 0
 rhs lin_xy_2_11 0
 rhs lin_xy_3_11 1
 rhs lin_xny_1_11 0
 rhs lin_xny_2_11 1
 rhs lin_xny_3_11 0
 rhs lin_nxy_1_11 1
 rhs lin_nxy_2_11 0
 rhs lin_nxy_3_11 0
 rhs lin_nxny_1_11 1
 rhs lin_nxny_2_11 1
 rhs lin_nxny_3_11 -1
 rhs lin_xy_1_12 0
 rhs lin_xy_2_12 0
 rhs lin_xy_3_12 1
 rhs lin_xny_1_12 0
 rhs lin_xny_2_12 1
 rhs lin_xny_3_12 0
 rhs lin_nxy_1_12 1
 rhs lin_nxy_2_12 0
 rhs lin_nxy_3_12 0
 rhs lin_nxny_1_12 1
 rhs lin_nxny_2_12 1
 rhs lin_nxny_3_12 -1
 rhs lin_xy_1_13 0
 rhs lin_xy_2_13 0
 rhs lin_xy_3_13 1
 rhs lin_xny_1_13 0
 rhs lin_xny_2_13 1
 rhs lin_xny_3_13 0
 rhs lin_nxy_1_13 1
 rhs lin_nxy_2_13 0
 rhs lin_nxy_3_13 0
 rhs lin_nxny_1_13 1
 rhs lin_nxny_2_13 1
 rhs lin_nxny_3_13 -1
 rhs lin_xy_1_14 0
 rhs lin_xy_2_14 0
 rhs lin_xy_3_14 1
 rhs lin_xny_1_14 0
 rhs lin_xny_2_14 1
 rhs lin_xny_3_14 0
 rhs lin_nxy_1_14 1
 rhs lin_nxy_2_14 0
 rhs lin_nxy_3_14 0
 rhs lin_nxny_1_14 1
 rhs lin_nxny_2_14 1
 rhs lin_nxny_3_14 -1
 rhs lin_xy_1_15 0
 rhs lin_xy_2_15 0
 rhs lin_xy_3_15 1
 rhs lin_xny_1_15 0
 rhs lin_xny_2_15 1
 rhs lin_xny_3_15 0
 rhs lin_nxy_1_15 1
 rhs lin_nxy_2_15 0
 rhs lin_nxy_3_15 0
 rhs lin_nxny_1_15 1
 rhs lin_nxny_2_15 1
 rhs lin_nxny_3_15 -1
 rhs lin_xy_1_16 0
 rhs lin_xy_2_16 0
 rhs lin_xy_3_16 1
 rhs lin_xny_1_16 0
 rhs lin_xny_2_16 1
 rhs lin_xny_3_16 0
 rhs lin_nxy_1_16 1
 rhs lin_nxy_2_16 0
 rhs lin_nxy_3_16 0
 rhs lin_nxny_1_16 1
 rhs lin_nxny_2_16 1
 rhs lin_nxny_3_16 -1
 rhs lin_xy_1_17 0
 rhs lin_xy_2_17 0
 rhs lin_xy_3_17 1
 rhs lin_xny_1_17 0
 rhs lin_xny_2_17 1
 rhs lin_xny_3_17 0
 rhs lin_nxy_1_17 1
 rhs lin_nxy_2_17 0
 rhs lin_nxy_3_17 0
 rhs lin_nxny_1_17 1
 rhs lin_nxny_2_17 1
 rhs lin_nxny_3_17 -1
 rhs lin_xy_1_18 0
 rhs lin_xy_2_18 0
 rhs lin_xy_3_18 1
 rhs lin_xny_1_18 0
 rhs lin_xny_2_18 1
 rhs lin_xny_3_18 0
 rhs lin_nxy_1_18 1
 rhs lin_nxy_2_18 0
 rhs lin_nxy_3_18 0
 rhs lin_nxny_1_18 1
 rhs lin_nxny_2_18 1
 rhs lin_nxny_3_18 -1
 rhs lin_xy_1_19 0
 rhs lin_xy_2_19 0
 rhs lin_xy_3_19 1
 rhs lin_xny_1_19 0
 rhs lin_xny_2_19 1
 rhs lin_xny_3_19 0
 rhs lin_nxy_1_19 1
 rhs lin_nxy_2_19 0
 rhs lin_nxy_3_19 0
 rhs lin_nxny_1_19 1
 rhs lin_nxny_2_19 1
 rhs lin_nxny_3_19 -1
 rhs lin_xy_1_20 0
 rhs lin_xy_2_20 0
 rhs lin_xy_3_20 1
 rhs lin_xny_1_20 0
 rhs lin_xny_2_20 1
 rhs lin_xny_3_20 0
 rhs lin_nxy_1_20 1
 rhs lin_nxy_2_20 0
 rhs lin_nxy_3_20 0
 rhs lin_nxny_1_20 1
 rhs lin_nxny_2_20 1
 rhs lin_nxny_3_20 -1
 rhs lin_xy_1_21 0
 rhs lin_xy_2_21 0
 rhs lin_xy_3_21 1
 rhs lin_xny_1_21 0
 rhs lin_xny_2_21 1
 rhs lin_xny_3_21 0
 rhs lin_nxy_1_21 1
 rhs lin_nxy_2_21 0
 rhs lin_nxy_3_21 0
 rhs lin_nxny_1_21 1
 rhs lin_nxny_2_21 1
 rhs lin_nxny_3_21 -1
 rhs lin_xy_1_22 0
 rhs lin_xy_2_22 0
 rhs lin_xy_3_22 1
 rhs lin_xny_1_22 0
 rhs lin_xny_2_22 1
 rhs lin_xny_3_22 0
 rhs lin_nxy_1_22 1
 rhs lin_nxy_2_22 0
 rhs lin_nxy_3_22 0
 rhs lin_nxny_1_22 1
 rhs lin_nxny_2_22 1
 rhs lin_nxny_3_22 -1
 rhs lin_xy_1_23 0
 rhs lin_xy_2_23 0
 rhs lin_xy_3_23 1
 rhs lin_xny_1_23 0
 rhs lin_xny_2_23 1
 rhs lin_xny_3_23 0
 rhs lin_nxy_1_23 1
 rhs lin_nxy_2_23 0
 rhs lin_nxy_3_23 0
 rhs lin_nxny_1_23 1
 rhs lin_nxny_2_23 1
 rhs lin_nxny_3_23 -1
 rhs lin_xy_1_24 0
 rhs lin_xy_2_24 0
 rhs lin_xy_3_24 1
 rhs lin_xny_1_24 0
 rhs lin_xny_2_24 1
 rhs lin_xny_3_24 0
 rhs lin_nxy_1_24 1
 rhs lin_nxy_2_24 0
 rhs lin_nxy_3_24 0
 rhs lin_nxny_1_24 1
 rhs lin_nxny_2_24 1
 rhs lin_nxny_3_24 -1
BOUNDS
 LI bound x0 0.0000000
 UI bound x0 1.0000000
 LI bound x1 0.0000000
 UI bound x1 1.0000000
 LI bound x2 0.0000000
 UI bound x2 1.0000000
 LI bound x3 0.0000000
 UI bound x3 1.0000000
 LI bound x4 0.0000000
 UI bound x4 1.0000000
 LI bound x5 0.0000000
 UI bound x5 1.0000000
 LI bound x6 0.0000000
 UI bound x6 1.0000000
 LI bound x7 0.0000000
 UI bound x7 1.0000000
 LI bound x8 0.0000000
 UI bound x8 1.0000000
 LI bound x9 0.0000000
 UI bound x9 1.0000000
 LI bound x10 0.0000000
 UI bound x10 1.0000000
 LI bound x11 0.0000000
 UI bound x11 1.0000000
 LI bound x12 0.0000000
 UI bound x12 1.0000000
 LI bound x13 0.0000000
 UI bound x13 1.0000000
 LI bound x14 0.0000000
 UI bound x14 1.0000000
 LI bound x15 0.0000000
 UI bound x15 1.0000000
 LI bound x16 0.0000000
 UI bound x16 1.0000000
 LI bound x17 0.0000000
 UI bound x17 1.0000000
 LI bound x18 0.0000000
 UI bound x18 1.0000000
 LI bound x19 0.0000000
 UI bound x19 1.0000000
 LI bound x20 0.0000000
 UI bound x20 1.0000000
 LI bound x21 0.0000000
 UI bound x21 1.0000000
 LI bound x22 0.0000000
 UI bound x22 1.0000000
 LI bound x23 0.0000000
 UI bound x23 1.0000000
 LI bound x24 0.0000000
 UI bound x24 1.0000000
 LI bound y0 0.0000000
 UI bound y0 1.0000000
 LI bound y1 0.0000000
 UI bound y1 1.0000000
 LI bound y2 0.0000000
 UI bound y2 1.0000000
 LI bound y3 0.0000000
 UI bound y3 1.0000000
 LI bound y4 0.0000000
 UI bound y4 1.0000000
 LI bound y5 0.0000000
 UI bound y5 1.0000000
 LI bound y6 0.0000000
 UI bound y6 1.0000000
 LI bound y7 0.0000000
 UI bound y7 1.0000000
 LI bound y8 0.0000000
 UI bound y8 1.0000000
 LI bound y9 0.0000000
 UI bound y9 1.0000000
 LI bound y10 0.0000000
 UI bound y10 1.0000000
 LI bound y11 0.0000000
 UI bound y11 1.0000000
 LI bound y12 0.0000000
 UI bound y12 1.0000000
 LI bound y13 0.0000000
 UI bound y13 1.0000000
 LI bound y14 0.0000000
 UI bound y14 1.0000000
 LI bound y15 0.0000000
 UI bound y15 1.0000000
 LI bound y16 0.0000000
 UI bound y16 1.0000000
 LI bound y17 0.0000000
 UI bound y17 1.0000000
 LI bound y18 0.0000000
 UI bound y18 1.0000000
 LI bound y19 0.0000000
 UI bound y19 1.0000000
 LI bound y20 0.0000000
 UI bound y20 1.0000000
 LI bound y21 0.0000000
 UI bound y21 1.0000000
 LI bound y22 0.0000000
 UI bound y22 1.0000000
 LI bound y23 0.0000000
 UI bound y23 1.0000000
 LI bound y24 0.0000000
 UI bound y24 1.0000000
 LI bound z_xy0 0.0000000
 UI bound z_xy0 1.0000000
 LI bound z_xy1 0.0000000
 UI bound z_xy1 1.0000000
 LI bound z_xy2 0.0000000
 UI bound z_xy2 1.0000000
 LI bound z_xy3 0.0000000
 UI bound z_xy3 1.0000000
 LI bound z_xy4 0.0000000
 UI bound z_xy4 1.0000000
 LI bound z_xy5 0.0000000
 UI bound z_xy5 1.0000000
 LI bound z_xy6 0.0000000
 UI bound z_xy6 1.0000000
 LI bound z_xy7 0.0000000
 UI bound z_xy7 1.0000000
 LI bound z_xy8 0.0000000
 UI bound z_xy8 1.0000000
 LI bound z_xy9 0.0000000
 UI bound z_xy9 1.0000000
 LI bound z_xy10 0.0000000
 UI bound z_xy10 1.0000000
 LI bound z_xy11 0.0000000
 UI bound z_xy11 1.0000000
 LI bound z_xy12 0.0000000
 UI bound z_xy12 1.0000000
 LI bound z_xy13 0.0000000
 UI bound z_xy13 1.0000000
 LI bound z_xy14 0.0000000
 UI bound z_xy14 1.0000000
 LI bound z_xy15 0.0000000
 UI bound z_xy15 1.0000000
 LI bound z_xy16 0.0000000
 UI bound z_xy16 1.0000000
 LI bound z_xy17 0.0000000
 UI bound z_xy17 1.0000000
 LI bound z_xy18 0.0000000
 UI bound z_xy18 1.0000000
 LI bound z_xy19 0.0000000
 UI bound z_xy19 1.0000000
 LI bound z_xy20 0.0000000
 UI bound z_xy20 1.0000000
 LI bound z_xy21 0.0000000
 UI bound z_xy21 1.0000000
 LI bound z_xy22 0.0000000
 UI bound z_xy22 1.0000000
 LI bound z_xy23 0.0000000
 UI bound z_xy23 1.0000000
 LI bound z_xy24 0.0000000
 UI bound z_xy24 1.0000000
 LI bound z_xny0 0.0000000
 UI bound z_xny0 1.0000000
 LI bound z_xny1 0.0000000
 UI bound z_xny1 1.0000000
 LI bound z_xny2 0.0000000
 UI bound z_xny2 1.0000000
 LI bound z_xny3 0.0000000
 UI bound z_xny3 1.0000000
 LI bound z_xny4 0.0000000
 UI bound z_xny4 1.0000000
 LI bound z_xny5 0.0000000
 UI bound z_xny5 1.0000000
 LI bound z_xny6 0.0000000
 UI bound z_xny6 1.0000000
 LI bound z_xny7 0.0000000
 UI bound z_xny7 1.0000000
 LI bound z_xny8 0.0000000
 UI bound z_xny8 1.0000000
 LI bound z_xny9 0.0000000
 UI bound z_xny9 1.0000000
 LI bound z_xny10 0.0000000
 UI bound z_xny10 1.0000000
 LI bound z_xny11 0.0000000
 UI bound z_xny11 1.0000000
 LI bound z_xny12 0.0000000
 UI bound z_xny12 1.0000000
 LI bound z_xny13 0.0000000
 UI bound z_xny13 1.0000000
 LI bound z_xny14 0.0000000
 UI bound z_xny14 1.0000000
 LI bound z_xny15 0.0000000
 UI bound z_xny15 1.0000000
 LI bound z_xny16 0.0000000
 UI bound z_xny16 1.0000000
 LI bound z_xny17 0.0000000
 UI bound z_xny17 1.0000000
 LI bound z_xny18 0.0000000
 UI bound z_xny18 1.0000000
 LI bound z_xny19 0.0000000
 UI bound z_xny19 1.0000000
 LI bound z_xny20 0.0000000
 UI bound z_xny20 1.0000000
 LI bound z_xny21 0.0000000
 UI bound z_xny21 1.0000000
 LI bound z_xny22 0.0000000
 UI bound z_xny22 1.0000000
 LI bound z_xny23 0.0000000
 UI bound z_xny23 1.0000000
 LI bound z_xny24 0.0000000
 UI bound z_xny24 1.0000000
 LI bound z_nxy0 0.0000000
 UI bound z_nxy0 1.0000000
 LI bound z_nxy1 0.0000000
 UI bound z_nxy1 1.0000000
 LI bound z_nxy2 0.0000000
 UI bound z_nxy2 1.0000000
 LI bound z_nxy3 0.0000000
 UI bound z_nxy3 1.0000000
 LI bound z_nxy4 0.0000000
 UI bound z_nxy4 1.0000000
 LI bound z_nxy5 0.0000000
 UI bound z_nxy5 1.0000000
 LI bound z_nxy6 0.0000000
 UI bound z_nxy6 1.0000000
 LI bound z_nxy7 0.0000000
 UI bound z_nxy7 1.0000000
 LI bound z_nxy8 0.0000000
 UI bound z_nxy8 1.0000000
 LI bound z_nxy9 0.0000000
 UI bound z_nxy9 1.0000000
 LI bound z_nxy10 0.0000000
 UI bound z_nxy10 1.0000000
 LI bound z_nxy11 0.0000000
 UI bound z_nxy11 1.0000000
 LI bound z_nxy12 0.0000000
 UI bound z_nxy12 1.0000000
 LI bound z_nxy13 0.0000000
 UI bound z_nxy13 1.0000000
 LI bound z_nxy14 0.0000000
 UI bound z_nxy14 1.0000000
 LI bound z_nxy15 0.0000000
 UI bound z_nxy15 1.0000000
 LI bound z_nxy16 0.0000000
 UI bound z_nxy16 1.0000000
 LI bound z_nxy17 0.0000000
 UI bound z_nxy17 1.0000000
 LI bound z_nxy18 0.0000000
 UI bound z_nxy18 1.0000000
 LI bound z_nxy19 0.0000000
 UI bound z_nxy19 1.0000000
 LI bound z_nxy20 0.0000000
 UI bound z_nxy20 1.0000000
 LI bound z_nxy21 0.0000000
 UI bound z_nxy21 1.0000000
 LI bound z_nxy22 0.0000000
 UI bound z_nxy22 1.0000000
 LI bound z_nxy23 0.0000000
 UI bound z_nxy23 1.0000000
 LI bound z_nxy24 0.0000000
 UI bound z_nxy24 1.0000000
 LI bound z_nxny0 0.0000000
 UI bound z_nxny0 1.0000000
 LI bound z_nxny1 0.0000000
 UI bound z_nxny1 1.0000000
 LI bound z_nxny2 0.0000000
 UI bound z_nxny2 1.0000000
 LI bound z_nxny3 0.0000000
 UI bound z_nxny3 1.0000000
 LI bound z_nxny4 0.0000000
 UI bound z_nxny4 1.0000000
 LI bound z_nxny5 0.0000000
 UI bound z_nxny5 1.0000000
 LI bound z_nxny6 0.0000000
 UI bound z_nxny6 1.0000000
 LI bound z_nxny7 0.0000000
 UI bound z_nxny7 1.0000000
 LI bound z_nxny8 0.0000000
 UI bound z_nxny8 1.0000000
 LI bound z_nxny9 0.0000000
 UI bound z_nxny9 1.0000000
 LI bound z_nxny10 0.0000000
 UI bound z_nxny10 1.0000000
 LI bound z_nxny11 0.0000000
 UI bound z_nxny11 1.0000000
 LI bound z_nxny12 0.0000000
 UI bound z_nxny12 1.0000000
 LI bound z_nxny13 0.0000000
 UI bound z_nxny13 1.0000000
 LI bound z_nxny14 0.0000000
 UI bound z_nxny14 1.0000000
 LI bound z_nxny15 0.0000000
 UI bound z_nxny15 1.0000000
 LI bound z_nxny16 0.0000000
 UI bound z_nxny16 1.0000000
 LI bound z_nxny17 0.0000000
 UI bound z_nxny17 1.0000000
 LI bound z_nxny18 0.0000000
 UI bound z_nxny18 1.0000000
 LI bound z_nxny19 0.0000000
 UI bound z_nxny19 1.0000000
 LI bound z_nxny20 0.0000000
 UI bound z_nxny20 1.0000000
 LI bound z_nxny21 0.0000000
 UI bound z_nxny21 1.0000000
 LI bound z_nxny22 0.0000000
 UI bound z_nxny22 1.0000000
 LI bound z_nxny23 0.0000000
 UI bound z_nxny23 1.0000000
 LI bound z_nxny24 0.0000000
 UI bound z_nxny24 1.0000000
ENDATA